2
Coordinates from ORCA-job CO E -113.310330992945
  C       0.000000      0.000000      0.000000
  O       0.000000      0.000000      1.128000
2
Coordinates from ORCA-job CO E -113.310347341177
  C       0.000000      0.000000      0.001252
  O       0.000000      0.000000      1.126748
2
Coordinates from ORCA-job CO E -113.310336550663
  C       0.000000      0.000000      0.001461
  O       0.000000      0.000000      1.126539
2
Coordinates from ORCA-job CO E -113.310353219672
  C       0.000000      0.000000      0.001457
  O       0.000000      0.000000      1.126543
