2
Coordinates from ORCA-job DCl E -460.766235285541
  H       0.000000      0.000000      0.000000
  Cl      0.000000      0.000000      1.275000
2
Coordinates from ORCA-job DCl E -460.766258956693
  H       0.000000      0.000000     -0.002854
  Cl      0.000000      0.000000      1.277854
2
Coordinates from ORCA-job DCl E -460.766265230900
  H       0.000000      0.000000     -0.003563
  Cl      0.000000      0.000000      1.278563
2
Coordinates from ORCA-job DCl E -460.766264367775
  H       0.000000      0.000000     -0.003579
  Cl      0.000000      0.000000      1.278579
