2
Coordinates from ORCA-job NO E -129.891182380631
  N       0.000000      0.000000      0.000000
  O       0.000000      0.000000      1.151000
2
Coordinates from ORCA-job NO E -129.891253490635
  N       0.000000      0.000000      0.002620
  O       0.000000      0.000000      1.148380
2
Coordinates from ORCA-job NO E -129.891262049108
  N       0.000000      0.000000      0.002935
  O       0.000000      0.000000      1.148065
2
Coordinates from ORCA-job NO E -129.891253623420
  N       0.000000      0.000000      0.002928
  O       0.000000      0.000000      1.148072
